6357063
47,196,53,161,85,141,169,21,70,89,178,175,90,116,172,159,146,60,17,170,212,164,223,45,210,50,18,56,107,28,6,124,156,184,74,40,155,94,207,153,86,201,31,95,58,197,27,35,71,78,26,166,208,30,48,69,39,72,177,142,97,103,36,19,176,203,143,91,195,88,183,211,134,93,188,157,205,20,104,65,3,191,73,204,227,115,199,167,13,12,100,214,217,117,152,76,105,106,24,111,187,38,168,2,206,87,4,66,46,119,114,81,181,23,221,162,136,5,102,135,79,64,92,22,126,186,228,226,16,84,150,171,138,219,202,82,218,121,41,216,127,215,10,110,174,9,11,33,185,96,190,113,25,125,49,1,98,129,209,133,122,192,130,32,151,148,59,147,51,99,77,137,144,67,62,101,44,194,140,57,120,109,34,193,43,7,182,224,229,132,83,8,54,108,220,80,139,128,222,112,230,213,14,55,68,29,42,158,37,173,52,179,75,63,200,145,163,189,123,180,61,15,225,154,198,118,131,165,160,149